Route #1: 16 42 61 32 58 40 56 18 29 
Route #2: 27 3 4 37 30 43 
Route #3: 46 64 6 26 31 34 47 
Route #4: 45 20 38 2 41 50 35 5 
Route #5: 55 19 13 12 1 28 11 51 17 
Route #6: 39 49 36 14 9 22 15 
Route #7: 23 57 48 54 63 7 62 
Route #8: 53 52 24 44 21 33 
Route #9: 25 8 10 59 60 
cost 1487.74
execution_time 52.024
